evaluation/exploit_mitigation/broken_payloads/tsp/payloads_not_broken_by_any_apps.txt
      6 952
      6 896
      6 894
      6 893
      6 891
      6 888
      6 880
      6 879
      6 878
      6 867
      6 864
      6 848
      6 824
      6 813
      6 784
      6 755
      6 641
      6 626
      6 623
      6 610
      6 573
      6 562
      6 561
      6 554
      6 548
      6 470
      6 407
      6 369
      6 258
      6 255
      6 254
      6 234
      6 233
      6 232
      6 231
      6 213
      6 212
      6 211
      6 208
      6 207
      6 2012
      6 201
      6 1962
      6 1961
      6 196
      6 195
      6 194
      6 193
      6 1922
      6 192
      6 1865
      6 18641
      6 1864
      6 18631
      6 1863
      6 186221
      6 18622
      6 186211
      6 18621
      6 1862
      6 186
      6 1842
      6 1841
      6 184
      6 183
      6 182
      6 181
      6 1802
      6 180
      6 1722
      6 1721
      6 172
      6 171
      6 170
      6 169
      6 1682
      6 168
      6 155
      6 15321452
      6 15321451
      6 15321450
      6 15321449
      6 152
